p cnf 722 1893
a 462 463 464 465 466 467 468 469 470 471 472 473 474 475 476 477 478 479 480 481 482 483 484 485 486 487 488 489 490 491 492 493 494 495 496 497 498 499 500 501 502 503 504 505 506 507 508 509 510 511 512 513 514 515 516 517 518 519 520 521 522 523 524 525 526 527 528 529 530 531 532 533 534 535 536 537 538 539 540 541 542 543 544 545 546 547 548 549 550 551 552 553 554 555 556 557 558 559 560 561 562 563 564 565 566 567 568 569 570 571 572 573 574 575 576 577 578 579 580 581 582 583 584 585 586 587 588 589 590 591 0
e 425 426 427 428 429 430 431 432 433 434 435 436 437 438 439 440 441 442 443 444 445 446 447 448 449 450 451 452 453 454 455 456 457 458 459 460 461 2 3 4 5 6 7 8 9 10 11 12 13 14 15 16 17 18 19 20 21 22 23 24 25 26 27 28 29 30 31 32 33 34 35 36 37 38 39 40 41 42 43 44 45 46 47 48 49 50 51 52 53 54 55 56 57 58 59 60 61 62 63 64 65 66 67 68 69 70 71 72 73 74 75 76 77 78 79 80 81 82 83 84 85 86 87 88 89 90 91 92 93 94 95 96 97 98 99 100 101 102 103 104 105 106 107 108 109 110 111 112 113 114 115 116 117 118 119 120 121 122 123 124 125 126 127 128 129 130 131 132 133 134 135 136 137 138 139 140 141 142 143 144 145 146 147 148 149 150 151 152 153 154 155 156 157 158 159 160 161 162 163 164 165 166 167 168 169 170 171 172 173 174 175 176 177 178 179 180 181 182 183 184 185 186 187 188 189 190 191 192 193 194 195 196 197 198 199 200 201 202 203 204 205 206 207 208 209 210 211 212 213 214 215 216 217 218 219 220 221 222 223 224 225 226 227 228 229 230 231 232 233 234 235 236 237 238 239 240 241 242 243 244 245 246 247 248 249 250 251 252 253 254 255 256 257 258 259 260 261 262 263 264 265 266 267 268 269 270 271 272 273 274 275 276 277 278 279 280 281 282 283 284 285 286 287 288 289 290 291 292 293 294 295 296 297 298 299 300 301 302 303 304 305 306 307 308 309 310 311 312 313 314 315 316 317 318 319 320 321 322 323 324 325 326 327 328 329 330 331 332 333 334 335 336 337 338 339 340 341 342 343 344 345 346 347 348 349 350 351 352 353 354 355 356 357 358 359 360 361 362 363 364 365 366 367 368 369 370 371 372 373 374 375 376 377 378 379 380 381 382 383 384 385 386 387 388 389 390 391 392 393 394 395 396 397 398 399 400 401 402 403 404 405 406 407 408 409 410 411 412 413 414 415 416 417 418 419 420 421 422 423 424 722 0
4 -5 -139 -388 -405 0
405 -4 0
5 -4 0
388 -4 0
139 -4 0
5 544 -6 -37 -70 0
5 6 -544 -37 -70 0
70 -5 0
544 6 -5 0
37 -5 0
-5 -544 -6 0
6 429 -7 0
6 -429 -22 0
22 -6 -429 0
429 7 -6 0
7 428 -8 0
7 -428 -15 0
15 -7 -428 0
428 8 -7 0
8 427 -9 0
8 -427 -12 0
12 -8 -427 0
427 9 -8 0
9 -426 -10 0
9 426 -11 0
426 11 -9 0
10 -9 -426 0
10 425 586 0
10 542 -425 0
-10 -425 -542 0
425 -10 -586 0
11 553 -425 0
11 425 517 0
425 -11 -517 0
-11 -425 -553 0
12 -426 -13 0
12 426 -14 0
426 14 -12 0
13 -12 -426 0
13 516 -425 0
13 425 486 0
425 -13 -486 0
-13 -425 -516 0
14 585 -425 0
14 425 507 0
425 -14 -507 0
-14 -425 -585 0
15 427 -16 0
15 -427 -19 0
19 -15 -427 0
427 16 -15 0
16 -426 -17 0
16 426 -18 0
426 18 -16 0
17 -16 -426 0
17 515 -425 0
17 425 480 0
425 -17 -480 0
-17 -425 -515 0
18 425 576 0
18 537 -425 0
-18 -425 -537 0
425 -18 -576 0
19 -426 -20 0
19 426 -21 0
426 21 -19 0
20 -19 -426 0
20 541 -425 0
20 425 506 0
425 -20 -506 0
-20 -425 -541 0
21 584 -425 0
21 425 487 0
425 -21 -487 0
-21 -425 -584 0
22 428 -23 0
22 -428 -30 0
30 -22 -428 0
428 23 -22 0
23 427 -24 0
23 -427 -27 0
27 -23 -427 0
427 24 -23 0
24 -426 -25 0
24 426 -26 0
426 26 -24 0
25 -24 -426 0
25 571 -425 0
25 425 518 0
425 -25 -518 0
-25 -425 -571 0
26 425 591 0
26 554 -425 0
-26 -425 -554 0
425 -26 -591 0
27 -426 -28 0
27 426 -29 0
426 29 -27 0
28 -27 -426 0
28 425 565 0
28 527 -425 0
-28 -425 -527 0
425 -28 -565 0
29 425 505 0
29 473 -425 0
-29 -425 -473 0
425 -29 -505 0
30 427 -31 0
30 -427 -34 0
34 -30 -427 0
427 31 -30 0
31 -426 -32 0
31 426 -33 0
426 33 -31 0
32 -31 -426 0
32 549 -425 0
32 425 536 0
425 -32 -536 0
-32 -425 -549 0
33 574 -425 0
33 425 560 0
425 -33 -560 0
-33 -425 -574 0
34 -426 -35 0
34 426 -36 0
426 36 -34 0
35 -34 -426 0
35 573 -425 0
35 425 478 0
425 -35 -478 0
-35 -425 -573 0
36 425 589 0
36 546 -425 0
-36 -425 -546 0
425 -36 -589 0
37 483 38 -495 -39 0
37 483 495 -38 -39 0
37 495 39 -483 -38 0
37 38 39 -483 -495 0
-37 -483 -39 0
483 39 -37 0
-37 -495 -38 0
495 38 -37 0
38 -429 -7 0
38 429 -22 0
429 22 -38 0
7 -38 -429 0
39 429 -40 0
39 -429 -55 0
55 -39 -429 0
429 40 -39 0
40 428 -41 0
40 -428 -48 0
48 -40 -428 0
428 41 -40 0
41 427 -42 0
41 -427 -45 0
45 -41 -427 0
427 42 -41 0
42 -426 -43 0
42 426 -44 0
426 44 -42 0
43 -42 -426 0
43 425 515 0
43 487 -425 0
-43 -425 -487 0
425 -43 -515 0
44 425 537 0
44 480 -425 0
-44 -425 -480 0
425 -44 -537 0
45 -426 -46 0
45 426 -47 0
426 47 -45 0
46 -45 -426 0
46 591 -425 0
46 425 541 0
425 -46 -541 0
-46 -425 -591 0
47 425 584 0
47 506 -425 0
-47 -425 -506 0
425 -47 -584 0
48 427 -49 0
48 -427 -52 0
52 -48 -427 0
427 49 -48 0
49 -426 -50 0
49 426 -51 0
426 51 -49 0
50 -49 -426 0
50 425 571 0
50 505 -425 0
-50 -425 -505 0
425 -50 -571 0
51 425 554 0
51 518 -425 0
-51 -425 -518 0
425 -51 -554 0
52 -426 -53 0
52 426 -54 0
426 54 -52 0
53 -52 -426 0
53 560 -425 0
53 425 527 0
425 -53 -527 0
-53 -425 -560 0
54 565 -425 0
54 425 473 0
425 -54 -473 0
-54 -425 -565 0
55 428 -56 0
55 -428 -63 0
63 -55 -428 0
428 56 -55 0
56 427 -57 0
56 -427 -60 0
60 -56 -427 0
427 57 -56 0
57 -426 -58 0
57 426 -59 0
426 59 -57 0
58 -57 -426 0
58 589 -425 0
58 425 549 0
425 -58 -549 0
-58 -425 -589 0
59 425 574 0
59 536 -425 0
-59 -425 -536 0
425 -59 -574 0
60 -426 -61 0
60 426 -62 0
426 62 -60 0
61 -60 -426 0
61 425 573 0
61 517 -425 0
-61 -425 -517 0
425 -61 -573 0
62 425 546 0
62 478 -425 0
-62 -425 -478 0
425 -62 -546 0
63 427 -64 0
63 -427 -67 0
67 -63 -427 0
427 64 -63 0
64 -426 -65 0
64 426 -66 0
426 66 -64 0
65 -64 -426 0
65 425 542 0
65 507 -425 0
-65 -425 -507 0
425 -65 -542 0
66 586 -425 0
66 425 553 0
425 -66 -553 0
-66 -425 -586 0
67 -426 -68 0
67 426 -69 0
426 69 -67 0
68 -67 -426 0
68 576 -425 0
68 425 516 0
425 -68 -516 0
-68 -425 -576 0
69 425 585 0
69 486 -425 0
-69 -425 -486 0
425 -69 -585 0
70 -71 -102 -109 -124 0
124 -70 0
71 -70 0
109 -70 0
102 -70 0
71 497 72 -540 -87 0
71 497 540 -72 -87 0
71 540 87 -497 -72 0
71 72 87 -497 -540 0
-71 -497 -87 0
497 87 -71 0
-71 -540 -72 0
540 72 -71 0
72 429 -73 0
72 -429 -80 0
80 -72 -429 0
429 73 -72 0
73 428 -74 0
73 -428 -77 0
77 -73 -428 0
428 74 -73 0
74 427 -75 0
74 -427 -76 0
76 -74 -427 0
427 75 -74 0
75 426 -53 0
75 -426 -59 0
59 -75 -426 0
426 53 -75 0
76 426 -58 0
76 -426 -62 0
62 -76 -426 0
426 58 -76 0
77 427 -78 0
77 -427 -79 0
79 -77 -427 0
427 78 -77 0
78 426 -61 0
78 -426 -66 0
66 -78 -426 0
426 61 -78 0
79 426 -65 0
79 -426 -69 0
69 -79 -426 0
426 65 -79 0
80 428 -81 0
80 -428 -84 0
84 -80 -428 0
428 81 -80 0
81 427 -82 0
81 -427 -83 0
83 -81 -427 0
427 82 -81 0
82 -426 -44 0
82 426 -68 0
426 68 -82 0
44 -82 -426 0
83 426 -43 0
83 -426 -47 0
47 -83 -426 0
426 43 -83 0
84 427 -85 0
84 -427 -86 0
86 -84 -427 0
427 85 -84 0
85 426 -46 0
85 -426 -51 0
51 -85 -426 0
426 46 -85 0
86 426 -50 0
86 -426 -54 0
54 -86 -426 0
426 50 -86 0
87 429 -88 0
87 -429 -95 0
95 -87 -429 0
429 88 -87 0
88 428 -89 0
88 -428 -92 0
92 -88 -428 0
428 89 -88 0
89 427 -90 0
89 -427 -91 0
91 -89 -427 0
427 90 -89 0
90 426 -32 0
90 -426 -36 0
36 -90 -426 0
426 32 -90 0
91 -426 -11 0
91 426 -35 0
426 35 -91 0
11 -91 -426 0
92 427 -93 0
92 -427 -94 0
94 -92 -427 0
427 93 -92 0
93 426 -10 0
93 -426 -14 0
14 -93 -426 0
426 10 -93 0
94 426 -13 0
94 -426 -18 0
18 -94 -426 0
426 13 -94 0
95 428 -96 0
95 -428 -99 0
99 -95 -428 0
428 96 -95 0
96 427 -97 0
96 -427 -98 0
98 -96 -427 0
427 97 -96 0
97 426 -17 0
97 -426 -21 0
21 -97 -426 0
426 17 -97 0
98 426 -20 0
98 -426 -26 0
26 -98 -426 0
426 20 -98 0
99 427 -100 0
99 -427 -101 0
101 -99 -427 0
427 100 -99 0
100 426 -25 0
100 -426 -29 0
29 -100 -426 0
426 25 -100 0
101 426 -28 0
101 -426 -33 0
33 -101 -426 0
426 28 -101 0
102 590 103 -550 -106 0
102 550 590 -103 -106 0
102 550 106 -590 -103 0
102 103 106 -550 -590 0
-102 -550 -103 0
550 103 -102 0
590 106 -102 0
-102 -590 -106 0
103 429 -104 0
103 -429 -105 0
105 -103 -429 0
429 104 -103 0
104 -428 -89 0
104 428 -99 0
428 99 -104 0
89 -104 -428 0
105 428 -92 0
105 -428 -96 0
96 -105 -428 0
428 92 -105 0
106 429 -107 0
106 -429 -108 0
108 -106 -429 0
429 107 -106 0
107 -428 -74 0
107 428 -84 0
428 84 -107 0
74 -107 -428 0
108 428 -77 0
108 -428 -81 0
81 -108 -428 0
428 77 -108 0
109 510 110 -471 -117 0
109 471 510 -110 -117 0
109 471 117 -510 -110 0
109 110 117 -471 -510 0
-109 -471 -110 0
471 110 -109 0
510 117 -109 0
-109 -510 -117 0
110 429 -111 0
110 -429 -114 0
114 -110 -429 0
429 111 -110 0
111 428 -112 0
111 -428 -113 0
113 -111 -428 0
428 112 -111 0
112 -427 -9 0
112 427 -34 0
427 34 -112 0
9 -112 -427 0
113 427 -12 0
113 -427 -16 0
16 -113 -427 0
427 12 -113 0
114 428 -115 0
114 -428 -116 0
116 -114 -428 0
428 115 -114 0
115 427 -19 0
115 -427 -24 0
24 -115 -427 0
427 19 -115 0
116 427 -27 0
116 -427 -31 0
31 -116 -427 0
427 27 -116 0
117 429 -118 0
117 -429 -121 0
121 -117 -429 0
429 118 -117 0
118 428 -119 0
118 -428 -120 0
120 -118 -428 0
428 119 -118 0
119 427 -91 0
119 -427 -93 0
93 -119 -427 0
427 91 -119 0
120 427 -94 0
120 -427 -97 0
97 -120 -427 0
427 94 -120 0
121 428 -122 0
121 -428 -123 0
123 -121 -428 0
428 122 -121 0
122 427 -98 0
122 -427 -100 0
100 -122 -427 0
427 98 -122 0
123 -427 -90 0
123 427 -101 0
427 101 -123 0
90 -123 -427 0
124 522 125 -535 -132 0
124 522 535 -125 -132 0
124 535 132 -522 -125 0
124 125 132 -522 -535 0
-124 -522 -132 0
522 132 -124 0
-124 -535 -125 0
535 125 -124 0
125 429 -126 0
125 -429 -129 0
129 -125 -429 0
429 126 -125 0
126 428 -127 0
126 -428 -128 0
128 -126 -428 0
428 127 -126 0
127 427 -79 0
127 -427 -82 0
82 -127 -427 0
427 79 -127 0
128 427 -83 0
128 -427 -85 0
85 -128 -427 0
427 83 -128 0
129 428 -130 0
129 -428 -131 0
131 -129 -428 0
428 130 -129 0
130 -427 -75 0
130 427 -86 0
427 86 -130 0
75 -130 -427 0
131 427 -76 0
131 -427 -78 0
78 -131 -427 0
427 76 -131 0
132 429 -133 0
132 -429 -136 0
136 -132 -429 0
429 133 -132 0
133 428 -134 0
133 -428 -135 0
135 -133 -428 0
428 134 -133 0
134 427 -45 0
134 -427 -49 0
49 -134 -427 0
427 45 -134 0
135 427 -52 0
135 -427 -57 0
57 -135 -427 0
427 52 -135 0
136 428 -137 0
136 -428 -138 0
138 -136 -428 0
428 137 -136 0
137 427 -60 0
137 -427 -64 0
64 -137 -427 0
427 60 -137 0
138 -427 -42 0
138 427 -67 0
427 67 -138 0
42 -138 -427 0
139 -140 -367 -380 -383 0
383 -139 0
140 -139 0
380 -139 0
367 -139 0
140 -141 -219 -246 -281 0
281 -140 0
141 -140 0
246 -140 0
219 -140 0
141 -142 -173 -198 -211 0
211 -141 0
142 -141 0
198 -141 0
173 -141 0
142 568 158 -562 -143 0
142 562 143 -568 -158 0
142 562 568 143 158 0
142 -562 -568 -143 -158 0
143 -142 -562 0
562 -142 -143 0
568 -142 -158 0
158 -142 -568 0
143 -428 -144 0
143 428 -151 0
428 151 -143 0
144 -143 -428 0
144 -427 -145 0
144 427 -148 0
427 148 -144 0
145 -144 -427 0
145 -426 -146 0
145 426 -147 0
426 147 -145 0
146 -145 -426 0
146 -425 -469 0
146 425 -569 0
425 569 -146 0
469 -146 -425 0
147 -425 -582 0
147 425 -583 0
425 583 -147 0
582 -147 -425 0
148 -426 -149 0
148 426 -150 0
426 150 -148 0
149 -148 -426 0
149 425 -463 0
149 -425 -500 0
500 -149 -425 0
425 463 -149 0
150 -425 -482 0
150 425 -489 0
425 489 -150 0
482 -150 -425 0
151 -427 -152 0
151 427 -155 0
427 155 -151 0
152 -151 -427 0
152 -426 -153 0
152 426 -154 0
426 154 -152 0
153 -152 -426 0
153 425 -512 0
153 -425 -534 0
534 -153 -425 0
425 512 -153 0
154 -425 -504 0
154 425 -524 0
425 524 -154 0
504 -154 -425 0
155 -426 -156 0
155 426 -157 0
426 157 -155 0
156 -155 -426 0
156 425 -523 0
156 -425 -563 0
563 -156 -425 0
425 523 -156 0
157 -425 -538 0
157 425 -545 0
425 545 -157 0
538 -157 -425 0
158 -428 -159 0
158 428 -166 0
428 166 -158 0
159 -158 -428 0
159 -427 -160 0
159 427 -163 0
427 163 -159 0
160 -159 -427 0
160 -426 -161 0
160 426 -162 0
426 162 -160 0
161 -160 -426 0
161 425 -504 0
161 -425 -512 0
512 -161 -425 0
425 504 -161 0
162 -425 -524 0
162 425 -563 0
425 563 -162 0
524 -162 -425 0
163 -426 -164 0
163 426 -165 0
426 165 -163 0
164 -163 -426 0
164 -425 -523 0
164 425 -538 0
425 538 -164 0
523 -164 -425 0
165 425 -531 0
165 -425 -545 0
545 -165 -425 0
425 531 -165 0
166 -427 -167 0
166 427 -170 0
427 170 -166 0
167 -166 -427 0
167 -426 -168 0
167 426 -169 0
426 169 -167 0
168 -167 -426 0
168 425 -519 0
168 -425 -557 0
557 -168 -425 0
425 519 -168 0
169 -425 -547 0
169 425 -577 0
425 577 -169 0
547 -169 -425 0
170 -426 -171 0
170 426 -172 0
426 172 -170 0
171 -170 -426 0
171 -425 -474 0
171 425 -496 0
425 496 -171 0
474 -171 -425 0
172 -425 -464 0
172 425 -551 0
425 551 -172 0
464 -172 -425 0
173 484 186 -468 -174 0
173 468 174 -484 -186 0
173 468 484 174 186 0
173 -468 -484 -174 -186 0
174 -173 -468 0
468 -173 -174 0
484 -173 -186 0
186 -173 -484 0
174 -428 -175 0
174 428 -182 0
428 182 -174 0
175 -174 -428 0
175 -427 -176 0
175 427 -179 0
427 179 -175 0
176 -175 -427 0
176 -426 -177 0
176 426 -178 0
426 178 -176 0
177 -176 -426 0
177 425 -474 0
177 -425 -577 0
577 -177 -425 0
425 474 -177 0
178 425 -464 0
178 -425 -496 0
496 -178 -425 0
425 464 -178 0
179 -426 -180 0
179 426 -181 0
426 181 -179 0
180 -179 -426 0
180 -425 -551 0
180 425 -566 0
425 566 -180 0
551 -180 -425 0
181 425 -479 0
181 -425 -498 0
498 -181 -425 0
425 479 -181 0
182 427 -145 0
182 -427 -183 0
183 -182 -427 0
427 145 -182 0
183 -426 -184 0
183 426 -185 0
426 185 -183 0
184 -183 -426 0
184 425 -558 0
184 -425 -588 0
588 -184 -425 0
425 558 -184 0
185 425 -485 0
185 -425 -509 0
509 -185 -425 0
425 485 -185 0
186 -428 -187 0
186 428 -194 0
428 194 -186 0
187 -186 -428 0
187 -427 -188 0
187 427 -191 0
427 191 -187 0
188 -187 -427 0
188 -426 -189 0
188 426 -190 0
426 190 -188 0
189 -188 -426 0
189 425 -469 0
189 -425 -485 0
485 -189 -425 0
425 469 -189 0
190 -425 -569 0
190 425 -582 0
425 582 -190 0
569 -190 -425 0
191 -426 -192 0
191 426 -193 0
426 193 -191 0
192 -191 -426 0
192 425 -500 0
192 -425 -583 0
583 -192 -425 0
425 500 -192 0
193 -425 -463 0
193 425 -482 0
425 482 -193 0
463 -193 -425 0
194 -427 -195 0
194 427 -197 0
427 197 -194 0
195 -194 -427 0
195 426 -161 0
195 -426 -196 0
196 -195 -426 0
426 161 -195 0
196 -425 -489 0
196 425 -534 0
425 534 -196 0
489 -196 -425 0
197 -426 -162 0
197 426 -164 0
426 164 -197 0
162 -197 -426 0
198 559 208 -526 -199 0
198 526 199 -559 -208 0
198 526 559 199 208 0
198 -526 -559 -199 -208 0
199 -198 -526 0
526 -198 -199 0
559 -198 -208 0
208 -198 -559 0
199 -428 -200 0
199 428 -204 0
428 204 -199 0
200 -199 -428 0
200 -427 -201 0
200 427 -202 0
427 202 -200 0
201 -200 -427 0
201 -426 -169 0
201 426 -171 0
426 171 -201 0
169 -201 -426 0
202 -426 -172 0
202 426 -203 0
426 203 -202 0
172 -202 -426 0
203 425 -498 0
203 -425 -566 0
566 -203 -425 0
425 498 -203 0
204 427 -188 0
204 -427 -205 0
205 -204 -427 0
427 188 -204 0
205 -426 -206 0
205 426 -207 0
426 207 -205 0
206 -205 -426 0
206 -425 -479 0
206 425 -588 0
425 588 -206 0
479 -206 -425 0
207 425 -509 0
207 -425 -558 0
558 -207 -425 0
425 509 -207 0
208 -428 -194 0
208 428 -209 0
428 209 -208 0
194 -208 -428 0
209 427 -201 0
209 -427 -210 0
210 -209 -427 0
427 201 -209 0
210 -426 -165 0
210 426 -168 0
426 168 -210 0
165 -210 -426 0
211 555 212 -499 -214 0
211 -499 -555 -212 -214 0
211 499 555 212 214 0
211 499 214 -555 -212 0
499 -211 -214 0
214 -211 -499 0
212 -211 -555 0
555 -211 -212 0
212 -428 -209 0
212 428 -213 0
428 213 -212 0
209 -212 -428 0
213 -427 -202 0
213 427 -205 0
427 205 -213 0
202 -213 -427 0
214 -428 -151 0
214 428 -215 0
428 215 -214 0
151 -214 -428 0
215 427 -176 0
215 -427 -216 0
216 -215 -427 0
427 176 -215 0
216 -426 -217 0
216 426 -218 0
426 218 -216 0
217 -216 -426 0
217 -425 -531 0
217 425 -557 0
425 557 -217 0
531 -217 -425 0
218 -425 -519 0
218 425 -547 0
425 547 -218 0
519 -218 -425 0
219 520 220 -223 -226 0
219 -520 -220 -223 -226 0
226 -219 0
220 -219 -520 0
223 -219 0
520 -219 -220 0
220 -428 -221 0
220 428 -222 0
428 222 -220 0
221 -220 -428 0
221 -427 -191 0
221 427 -195 0
427 195 -221 0
191 -221 -427 0
222 -427 -197 0
222 427 -210 0
427 210 -222 0
197 -222 -427 0
223 548 224 -466 -225 0
223 -466 -548 -224 -225 0
223 466 548 224 225 0
223 466 225 -548 -224 0
466 -223 -225 0
225 -223 -466 0
224 -223 -548 0
548 -223 -224 0
224 428 -187 0
224 -428 -213 0
213 -224 -428 0
428 187 -224 0
225 -428 -204 0
225 428 -221 0
428 221 -225 0
204 -225 -428 0
226 239 -491 -227 -244 0
226 491 239 244 -227 0
-226 -239 0
491 -226 -244 0
227 -226 0
244 -226 -491 0
227 543 235 -532 -228 0
227 532 228 -543 -235 0
227 532 543 228 235 0
227 -532 -543 -228 -235 0
228 -227 -532 0
532 -227 -228 0
543 -227 -235 0
235 -227 -543 0
228 -428 -229 0
228 428 -232 0
428 232 -228 0
229 -228 -428 0
229 -427 -230 0
229 427 -231 0
427 231 -229 0
230 -229 -427 0
230 -426 -181 0
230 426 -184 0
426 184 -230 0
181 -230 -426 0
231 426 -146 0
231 -426 -185 0
185 -231 -426 0
426 146 -231 0
232 -427 -233 0
232 427 -234 0
427 234 -232 0
233 -232 -427 0
233 -426 -147 0
233 426 -149 0
426 149 -233 0
147 -233 -426 0
234 -426 -150 0
234 426 -153 0
426 153 -234 0
150 -234 -426 0
235 -428 -236 0
235 428 -238 0
428 238 -235 0
236 -235 -428 0
236 427 -160 0
236 -427 -237 0
237 -236 -427 0
427 160 -236 0
237 -426 -193 0
237 426 -196 0
426 196 -237 0
193 -237 -426 0
238 -427 -163 0
238 427 -167 0
427 167 -238 0
163 -238 -427 0
239 580 -240 0
239 240 -580 0
-239 -580 -240 0
580 240 -239 0
240 428 -229 0
240 -428 -241 0
241 -240 -428 0
428 229 -240 0
241 -427 -242 0
241 427 -243 0
427 243 -241 0
242 -241 -427 0
242 426 -177 0
242 -426 -218 0
218 -242 -426 0
426 177 -242 0
243 -426 -178 0
243 426 -180 0
426 180 -243 0
178 -243 -426 0
244 428 -144 0
244 -428 -245 0
245 -244 -428 0
428 144 -244 0
245 -427 -179 0
245 427 -183 0
427 183 -245 0
179 -245 -427 0
246 -247 -258 -267 -274 0
274 -246 0
247 -246 0
267 -246 0
258 -246 0
247 570 248 254 256 0
247 248 256 -570 -254 0
-247 -248 0
254 -247 -570 0
-247 -256 0
570 -247 -254 0
248 488 -249 0
-248 -488 0
249 -248 0
249 -428 -250 0
249 428 -252 0
428 252 -249 0
250 -249 -428 0
250 -427 -234 0
250 427 -251 0
427 251 -250 0
234 -250 -427 0
251 -426 -154 0
251 426 -156 0
426 156 -251 0
154 -251 -426 0
252 427 -242 0
252 -427 -253 0
253 -252 -427 0
427 242 -252 0
253 -426 -157 0
253 426 -217 0
426 217 -253 0
157 -253 -426 0
254 -428 -232 0
254 428 -255 0
428 255 -254 0
232 -254 -428 0
255 -427 -251 0
255 427 -253 0
427 253 -255 0
251 -255 -427 0
256 257 -587 0
587 -256 0
-256 -257 0
257 428 -200 0
257 -428 -222 0
222 -257 -428 0
428 200 -257 0
258 477 259 263 266 0
258 259 266 -477 -263 0
-258 -259 0
263 -258 -477 0
-258 -266 0
477 -258 -263 0
259 501 -260 0
-259 -501 0
260 -259 0
260 428 -159 0
260 -428 -261 0
261 -260 -428 0
428 159 -260 0
261 427 -237 0
261 -427 -262 0
262 -261 -427 0
427 237 -261 0
262 -426 -190 0
262 426 -192 0
426 192 -262 0
190 -262 -426 0
263 -428 -264 0
263 428 -265 0
428 265 -263 0
264 -263 -428 0
264 427 -230 0
264 -427 -243 0
243 -264 -427 0
427 230 -264 0
265 -427 -231 0
265 427 -233 0
427 233 -265 0
231 -265 -427 0
266 249 -488 0
488 -266 0
-266 -249 0
267 494 268 271 272 0
267 268 272 -494 -271 0
-267 -268 0
271 -267 -494 0
-267 -272 0
494 -267 -271 0
268 525 -269 0
-268 -525 0
269 -268 0
269 -428 -182 0
269 428 -270 0
428 270 -269 0
182 -269 -428 0
270 -427 -148 0
270 427 -152 0
427 152 -270 0
148 -270 -427 0
271 -428 -252 0
271 428 -264 0
428 264 -271 0
252 -271 -428 0
272 273 -513 0
513 -272 0
-272 -273 0
273 428 -241 0
273 -428 -255 0
255 -273 -428 0
428 241 -273 0
274 539 275 276 280 0
274 275 280 -539 -276 0
-274 -275 0
276 -274 -539 0
-274 -280 0
539 -274 -276 0
275 587 -257 0
-275 -587 0
257 -275 0
276 -428 -166 0
276 428 -277 0
428 277 -276 0
166 -276 -428 0
277 -427 -278 0
277 427 -279 0
427 279 -277 0
278 -277 -427 0
278 -426 -203 0
278 426 -206 0
426 206 -278 0
203 -278 -426 0
279 426 -189 0
279 -426 -207 0
207 -279 -426 0
426 189 -279 0
280 269 -525 0
525 -280 0
-280 -269 0
281 -282 -286 -290 -296 0
296 -281 0
282 -281 0
290 -281 0
286 -281 0
282 579 283 -481 -285 0
282 -481 -579 -283 -285 0
282 481 579 283 285 0
282 481 285 -579 -283 0
481 -282 -285 0
285 -282 -481 0
283 -282 -579 0
579 -282 -283 0
283 -428 -270 0
283 428 -284 0
428 284 -283 0
270 -283 -428 0
284 -427 -155 0
284 427 -216 0
427 216 -284 0
155 -284 -427 0
285 -428 -215 0
285 428 -245 0
428 245 -285 0
215 -285 -428 0
286 581 288 -475 -287 0
286 475 287 -581 -288 0
286 475 581 287 288 0
286 -475 -581 -287 -288 0
287 -286 -475 0
475 -286 -287 0
581 -286 -288 0
288 -286 -581 0
287 428 -261 0
287 -428 -277 0
277 -287 -428 0
428 261 -287 0
288 428 -236 0
288 -428 -289 0
289 -288 -428 0
428 236 -288 0
289 427 -262 0
289 -427 -279 0
279 -289 -427 0
427 262 -289 0
290 511 291 294 295 0
290 291 295 -511 -294 0
-290 -291 0
294 -290 -511 0
-290 -295 0
511 -290 -294 0
291 567 -292 0
-291 -567 0
292 -291 0
292 -428 -238 0
292 428 -293 0
428 293 -292 0
238 -292 -428 0
293 -427 -170 0
293 427 -278 0
427 278 -293 0
170 -293 -427 0
294 428 -175 0
294 -428 -284 0
284 -294 -428 0
428 175 -294 0
295 260 -501 0
501 -295 0
-295 -260 0
296 508 297 366 -298 0
296 366 -508 -297 -298 0
-296 -366 0
297 -296 -508 0
298 -296 0
508 -296 -297 0
297 428 -250 0
297 -428 -265 0
265 -297 -428 0
428 250 -297 0
298 -299 -317 -325 -343 0
343 -298 0
299 -298 0
325 -298 0
317 -298 0
299 -300 -306 -311 -314 0
314 -299 0
300 -299 0
311 -299 0
306 -299 0
300 -301 -302 -303 -305 0
305 -300 0
301 -300 0
303 -300 0
302 -300 0
301 455 -433 0
301 565 -553 0
301 455 565 0
301 -433 -553 0
553 -301 -455 0
433 -301 -565 0
302 430 441 0
302 -480 -485 0
302 430 -485 0
302 441 -480 0
480 -302 -430 0
485 -302 -441 0
303 -437 -560 -304 0
303 437 560 -304 0
304 -303 0
560 -303 -437 0
437 -303 -560 0
304 433 553 0
304 -455 -565 0
304 433 -455 0
304 553 -565 0
565 -304 -433 0
455 -304 -553 0
305 460 524 -440 -518 0
305 440 518 -460 -524 0
305 440 460 518 524 0
305 -440 -460 -518 -524 0
518 -305 -440 0
440 -305 -518 0
460 -305 -524 0
524 -305 -460 0
306 -307 -308 -309 -310 0
310 -306 0
307 -306 0
309 -306 0
308 -306 0
307 431 527 -430 -557 0
307 -430 -431 -527 -557 0
307 430 431 527 557 0
307 430 557 -431 -527 0
430 -307 -557 0
557 -307 -430 0
527 -307 -431 0
431 -307 -527 0
308 453 486 -438 -542 0
308 -438 -453 -486 -542 0
308 438 453 486 542 0
308 438 542 -453 -486 0
438 -308 -542 0
542 -308 -438 0
486 -308 -453 0
453 -308 -486 0
309 435 541 -434 -537 0
309 434 537 -435 -541 0
309 434 435 537 541 0
309 -434 -435 -537 -541 0
537 -309 -434 0
434 -309 -537 0
435 -309 -541 0
541 -309 -435 0
310 451 566 -438 -551 0
310 438 551 -451 -566 0
310 438 451 551 566 0
310 -438 -451 -551 -566 0
551 -310 -438 0
438 -310 -551 0
451 -310 -566 0
566 -310 -451 0
311 451 586 -312 -313 0
311 -451 -586 -312 -313 0
313 -311 0
586 -311 -451 0
312 -311 0
451 -311 -586 0
312 -444 -536 0
312 448 464 0
312 464 -536 0
312 448 -444 0
536 -312 -448 0
444 -312 -464 0
313 443 482 -434 -519 0
313 -434 -443 -482 -519 0
313 434 443 482 519 0
313 434 519 -443 -482 0
434 -313 -519 0
519 -313 -434 0
482 -313 -443 0
443 -313 -482 0
314 439 496 -315 -316 0
314 -439 -496 -315 -316 0
316 -314 0
496 -314 -439 0
315 -314 0
439 -314 -496 0
315 443 473 -440 -512 0
315 -440 -443 -473 -512 0
315 440 443 473 512 0
315 440 512 -443 -473 0
440 -315 -512 0
512 -315 -440 0
473 -315 -443 0
443 -315 -473 0
316 444 -441 0
316 485 -464 0
316 444 485 0
316 -441 -464 0
464 -316 -444 0
441 -316 -485 0
317 442 523 -318 -319 0
317 -442 -523 -318 -319 0
319 -317 0
523 -317 -442 0
318 -317 0
442 -317 -523 0
318 455 498 -435 -563 0
318 -435 -455 -498 -563 0
318 435 455 498 563 0
318 435 563 -455 -498 0
435 -318 -563 0
563 -318 -435 0
498 -318 -455 0
455 -318 -498 0
319 -320 -321 -322 -324 0
324 -319 0
320 -319 0
322 -319 0
321 -319 0
320 450 487 -436 -554 0
320 -436 -450 -487 -554 0
320 436 450 487 554 0
320 436 554 -450 -487 0
436 -320 -554 0
554 -320 -436 0
487 -320 -450 0
450 -320 -487 0
321 456 489 -452 -549 0
321 -452 -456 -489 -549 0
321 452 456 489 549 0
321 452 549 -456 -489 0
452 -321 -549 0
549 -321 -452 0
489 -321 -456 0
456 -321 -489 0
322 323 -454 -515 0
322 454 531 323 0
-322 -323 0
515 -322 -454 0
454 -322 -531 0
323 456 -505 0
323 505 -456 0
-323 -456 -505 0
456 505 -323 0
324 457 546 -453 -474 0
324 453 474 -457 -546 0
324 453 457 474 546 0
324 -453 -457 -474 -546 0
474 -324 -453 0
453 -324 -474 0
457 -324 -546 0
546 -324 -457 0
325 -326 -336 -337 -338 0
338 -325 0
326 -325 0
337 -325 0
336 -325 0
326 -327 -330 -333 -334 0
334 -326 0
327 -326 0
333 -326 0
330 -326 0
327 449 571 328 329 0
327 328 329 -449 -571 0
-327 -328 0
571 -327 -449 0
-327 -329 0
449 -327 -571 0
328 431 -500 0
-328 -431 0
500 -328 0
329 439 -585 0
-329 -439 0
585 -329 0
330 445 574 331 332 0
330 331 332 -445 -574 0
-330 -331 0
574 -330 -445 0
-330 -332 0
445 -330 -574 0
331 436 -504 0
-331 -436 0
504 -331 0
332 500 -431 0
431 -332 0
-332 -500 0
333 450 545 -447 -547 0
333 -447 -450 -545 -547 0
333 447 450 545 547 0
333 447 547 -450 -545 0
447 -333 -547 0
547 -333 -447 0
545 -333 -450 0
450 -333 -545 0
334 -446 -538 -335 0
334 446 538 -335 0
335 -334 0
538 -334 -446 0
446 -334 -538 0
335 -432 -588 0
335 461 478 0
335 478 -588 0
335 461 -432 0
588 -335 -461 0
432 -335 -478 0
336 444 507 -429 -503 0
336 429 503 -444 -507 0
336 429 444 503 507 0
336 -429 -444 -503 -507 0
503 -336 -429 0
429 -336 -503 0
444 -336 -507 0
507 -336 -444 0
337 445 582 -437 -583 0
337 -437 -445 -582 -583 0
337 437 445 582 583 0
337 437 583 -445 -582 0
437 -337 -583 0
583 -337 -437 0
582 -337 -445 0
445 -337 -582 0
338 460 591 -339 -342 0
338 -460 -591 -339 -342 0
342 -338 0
591 -338 -460 0
339 -338 0
460 -338 -591 0
339 447 576 340 341 0
339 340 341 -447 -576 0
-339 -340 0
576 -339 -447 0
-339 -341 0
447 -339 -576 0
340 461 -588 0
-340 -461 0
588 -340 0
341 504 -436 0
436 -341 0
-341 -504 0
342 -449 -467 0
342 534 -467 0
467 -342 0
449 -342 -534 0
343 -344 -355 -360 -363 0
363 -343 0
344 -343 0
360 -343 0
355 -343 0
344 -345 -350 -351 -352 0
352 -344 0
345 -344 0
351 -344 0
350 -344 0
345 441 589 -346 -347 0
345 -441 -589 -346 -347 0
347 -345 0
589 -345 -441 0
346 -345 0
441 -345 -589 0
346 442 446 0
346 -506 -584 0
346 442 -584 0
346 446 -506 0
506 -346 -442 0
584 -346 -446 0
347 458 479 348 349 0
347 348 349 -458 -479 0
-347 -348 0
479 -347 -458 0
-347 -349 0
458 -347 -479 0
348 452 -469 0
-348 -452 0
469 -348 0
349 463 -433 0
433 -349 0
-349 -463 0
350 439 448 0
350 -569 -585 0
350 448 -585 0
350 439 -569 0
569 -350 -448 0
585 -350 -439 0
351 480 -448 0
351 536 -430 0
351 -430 -448 0
351 480 536 0
448 -351 -536 0
430 -351 -480 0
352 457 509 353 354 0
352 353 354 -457 -509 0
-352 -353 0
509 -352 -457 0
-352 -354 0
457 -352 -509 0
353 446 -584 0
-353 -446 0
584 -353 0
354 442 -506 0
-354 -442 0
506 -354 0
355 -356 -357 -358 0
356 -355 0
357 -355 0
358 -355 0
356 449 517 0
356 -458 -534 0
356 449 -458 0
356 517 -534 0
534 -356 -449 0
458 -356 -517 0
357 -448 -577 0
357 459 569 0
357 569 -577 0
357 459 -448 0
577 -357 -459 0
448 -357 -569 0
358 432 558 359 0
358 359 -432 -478 -558 0
478 -358 -432 0
432 -358 -558 0
-358 -359 0
558 -358 -432 0
359 517 -458 0
458 -359 0
-359 -517 0
360 459 516 361 362 0
360 361 362 -459 -516 0
-360 -361 0
516 -360 -459 0
-360 -362 0
459 -360 -516 0
361 433 -463 0
-361 -433 0
463 -361 0
362 469 -452 0
452 -362 0
-362 -469 0
363 461 573 364 365 0
363 364 365 -461 -573 0
-363 -364 0
573 -363 -461 0
-363 -365 0
461 -363 -573 0
364 459 -577 0
-364 -459 0
577 -364 0
365 531 -515 0
515 -365 0
-365 -531 0
366 292 -567 0
567 -366 0
-366 -292 0
367 561 375 -368 -377 0
367 375 377 -561 -368 0
-367 -375 0
-367 -561 -377 0
368 -367 0
561 377 -367 0
368 502 369 -578 -372 0
368 502 578 -369 -372 0
368 578 372 -502 -369 0
368 369 372 -502 -578 0
-368 -502 -372 0
502 372 -368 0
-368 -578 -369 0
578 369 -368 0
369 429 -370 0
369 -429 -371 0
371 -369 -429 0
429 370 -369 0
370 -428 -41 0
370 428 -63 0
428 63 -370 0
41 -370 -428 0
371 428 -48 0
371 -428 -56 0
56 -371 -428 0
428 48 -371 0
372 429 -373 0
372 -429 -374 0
374 -372 -429 0
429 373 -372 0
373 -428 -119 0
373 428 -123 0
428 123 -373 0
119 -373 -428 0
374 428 -120 0
374 -428 -122 0
122 -374 -428 0
428 120 -374 0
375 -528 -376 0
375 528 376 0
528 -375 -376 0
376 -375 -528 0
376 -429 -107 0
376 429 -108 0
429 108 -376 0
107 -376 -429 0
377 429 -378 0
377 -429 -379 0
379 -377 -429 0
429 378 -377 0
378 -428 -127 0
378 428 -131 0
428 131 -378 0
127 -378 -428 0
379 428 -128 0
379 -428 -130 0
130 -379 -428 0
428 128 -379 0
380 521 381 -465 -382 0
380 465 521 -381 -382 0
380 465 382 -521 -381 0
380 381 382 -465 -521 0
-380 -465 -381 0
465 381 -380 0
521 382 -380 0
-380 -521 -382 0
381 -429 -111 0
381 429 -114 0
429 114 -381 0
111 -381 -429 0
382 -429 -370 0
382 429 -371 0
429 371 -382 0
370 -382 -429 0
383 470 384 -476 -385 0
383 470 476 -384 -385 0
383 476 385 -470 -384 0
383 384 385 -470 -476 0
-383 -470 -385 0
470 385 -383 0
-383 -476 -384 0
476 384 -383 0
384 -429 -373 0
384 429 -374 0
429 374 -384 0
373 -384 -429 0
385 429 -386 0
385 -429 -387 0
387 -385 -429 0
429 386 -385 0
386 -428 -112 0
386 428 -116 0
428 116 -386 0
112 -386 -428 0
387 428 -113 0
387 -428 -115 0
115 -387 -428 0
428 113 -387 0
388 389 392 -472 -394 0
388 472 392 -389 -394 0
394 -388 0
472 389 -388 0
-388 -392 0
-388 -472 -389 0
389 429 -390 0
389 -429 -391 0
391 -389 -429 0
429 390 -389 0
390 428 -135 0
390 -428 -137 0
137 -390 -428 0
428 135 -390 0
391 -428 -134 0
391 428 -138 0
428 138 -391 0
134 -391 -428 0
392 -552 -393 0
552 -392 0
393 -392 0
393 -429 -386 0
393 429 -387 0
429 387 -393 0
386 -393 -429 0
394 493 -395 -397 -398 0
394 397 -493 -395 -398 0
398 -394 0
-394 -493 -397 0
395 -394 0
493 397 -394 0
395 572 -552 0
395 396 -393 0
395 396 -552 0
395 572 -393 0
552 393 -395 0
-395 -572 -396 0
396 -429 -378 0
396 429 -379 0
429 379 -396 0
378 -396 -429 0
397 -429 -40 0
397 429 -55 0
429 55 -397 0
40 -397 -429 0
398 490 402 -399 0
398 402 404 -399 0
399 -398 0
-398 -402 0
-398 -490 -404 0
399 400 -556 0
399 575 -401 0
399 400 -401 0
399 575 -556 0
-399 -575 -400 0
556 401 -399 0
400 -429 -390 0
400 429 -391 0
429 391 -400 0
390 -400 -429 0
401 -429 -126 0
401 429 -129 0
429 129 -401 0
126 -401 -429 0
402 -492 -403 0
492 -402 0
403 -402 0
403 -429 -133 0
403 429 -136 0
429 136 -403 0
133 -403 -429 0
404 -429 -104 0
404 429 -105 0
429 105 -404 0
104 -404 -429 0
405 -406 -419 -420 -421 0
421 -405 0
406 -405 0
420 -405 0
419 -405 0
406 -407 -409 -414 -418 0
418 -406 0
407 -406 0
414 -406 0
409 -406 0
407 -514 -403 0
407 -492 -408 0
407 -492 -514 0
407 -403 -408 0
514 408 -407 0
492 403 -407 0
408 -429 -73 0
408 429 -80 0
429 80 -408 0
73 -408 -429 0
409 -462 -410 0
409 -530 -411 0
409 -462 -530 0
409 -410 -411 0
530 410 -409 0
462 411 -409 0
410 -429 -88 0
410 429 -95 0
429 95 -410 0
88 -410 -429 0
411 429 -412 0
411 -429 -413 0
413 -411 -429 0
429 412 -411 0
412 428 -15 0
412 -428 -23 0
23 -412 -428 0
428 15 -412 0
413 -428 -8 0
413 428 -30 0
428 30 -413 0
8 -413 -428 0
414 -415 -416 0
414 -529 -416 0
416 -414 0
529 415 -414 0
415 -429 -118 0
415 429 -121 0
429 121 -415 0
118 -415 -429 0
416 533 417 -513 0
416 273 -533 -417 0
416 -513 -533 -417 0
416 533 273 417 0
533 -416 -417 0
417 -416 -533 0
513 -416 -273 0
417 428 -289 0
417 -428 -293 0
293 -417 -428 0
428 289 -417 0
418 401 -490 0
418 556 -404 0
418 401 -404 0
418 556 -490 0
-418 -556 -401 0
490 404 -418 0
419 411 -575 0
419 462 -400 0
419 462 -575 0
419 411 -400 0
-419 -462 -411 0
575 400 -419 0
420 410 415 0
420 529 530 0
420 530 415 0
420 529 410 0
-420 -530 -410 0
-420 -529 -415 0
421 564 423 424 -422 0
421 422 423 424 -564 0
-421 -423 0
564 422 -421 0
-421 -424 0
-421 -564 -422 0
422 -429 -412 0
422 429 -413 0
429 413 -422 0
412 -422 -429 0
423 572 396 0
-423 -572 0
-423 -396 0
424 -514 -408 0
514 -424 0
408 -424 0
722 0
2 4 0
-2 -4 0
3 4 0
-3 -4 0
3 0
